Solver command line: ['C:\\Program Files\\IBM\\ILOG\\CPLEX_Studio2211\\cplex\\bin\\x64_win64\\cplex.exe']


Welcome to IBM(R) ILOG(R) CPLEX(R) Interactive Optimizer 22.1.1.0
  with Simplex, Mixed Integer & Barrier Optimizers
5725-A06 5725-A29 5724-Y48 5724-Y49 5724-Y54 5724-Y55 5655-Y21
Copyright IBM Corp. 1988, 2022.  All Rights Reserved.

Type 'help' for a list of available commands.
Type 'help' followed by a command name for more
information on commands.

CPLEX> Logfile 'cplex.log' closed.
Logfile 'C:\Users\wangy\Documents\GitHub\re_optimization\result_site_specific\tmpqlkew1ch.cplex.log' open.
CPLEX> Problem 'C:\Users\wangy\Documents\GitHub\re_optimization\result_site_specific\tmptrouwvkk.pyomo.lp' read.
Read time = 0.22 sec. (7.29 ticks)
CPLEX> Problem name         : C:\Users\wangy\Documents\GitHub\re_optimization\result_site_specific\tmptrouwvkk.pyomo.lp
Objective sense      : Minimize
Variables            :   52617  [Nneg: 27764,  Free: 8786,  Binary: 7,
                                 Other: 16060]
Objective nonzeros   :      14
Linear constraints   :   73052  [Less: 39437,  Greater: 3,  Equal: 33612]
  Nonzeros           :  181254
  RHS nonzeros       :    3312

Variables            : Min LB: 0.000000         Max UB: 1.000000       
Objective nonzeros   : Min   : 1.000000         Max   : 1.000000       
Linear constraints   :
  Nonzeros           : Min   : 0.001648867      Max   : 100000.0       
  RHS nonzeros       : Min   : 0.6150000        Max   : 1000.000       
CPLEX> Version identifier: 22.1.1.0 | 2022-11-27 | 9160aff4d
Tried aggregator 3 times.
MIP Presolve eliminated 49587 rows and 30608 columns.
Aggregator did 7825 substitutions.
Reduced MIP has 15640 rows, 14184 columns, and 45600 nonzeros.
Reduced MIP has 5 binaries, 0 generals, 0 SOSs, and 0 indicators.
Presolve time = 0.12 sec. (151.05 ticks)
Found incumbent of value 199669.828411 after 0.16 sec. (174.00 ticks)
Probing time = 0.00 sec. (0.91 ticks)
Tried aggregator 1 time.
Detecting symmetries...
Reduced MIP has 15640 rows, 14184 columns, and 45600 nonzeros.
Reduced MIP has 5 binaries, 0 generals, 0 SOSs, and 0 indicators.
Presolve time = 0.03 sec. (27.02 ticks)
Probing time = 0.01 sec. (0.83 ticks)
MIP emphasis: balance optimality and feasibility.
MIP search method: dynamic search.
Parallel mode: deterministic, using up to 16 threads.
Root relaxation solution time = 0.45 sec. (420.81 ticks)

        Nodes                                         Cuts/
   Node  Left     Objective  IInf  Best Integer    Best Bound    ItCnt     Gap

*     0+    0                       199669.8284    -7098.4437           103.56%
*     0+    0                        11960.3014    -7098.4437           159.35%
      0     0     8813.1501     1    11960.3014     8813.1501       48   26.31%
*     0+    0                        10417.2292     8813.1501            15.40%
      0     0        cutoff          10417.2292                    213    0.00%
Elapsed time = 0.80 sec. (756.08 ticks, tree = 0.01 MB, solutions = 3)

Root node processing (before b&c):
  Real time             =    0.81 sec. (758.53 ticks)
Parallel b&c, 16 threads:
  Real time             =    0.00 sec. (0.00 ticks)
  Sync time (average)   =    0.00 sec.
  Wait time (average)   =    0.00 sec.
                          ------------
Total (root+branch&cut) =    0.81 sec. (758.53 ticks)

Solution pool: 3 solutions saved.

MIP - Integer optimal solution:  Objective =  1.0417229236e+04
Solution time =    0.81 sec.  Iterations = 213  Nodes = 0
Deterministic time = 758.68 ticks  (934.34 ticks/sec)

CPLEX> Incumbent solution written to file 'C:\Users\wangy\Documents\GitHub\re_optimization\result_site_specific\tmpb6pqcydg.cplex.sol'.
CPLEX> 
